33D32945 STP File, STP Format Version 1.0

SECTION Comments
Name "shell_n10_d2_s24"
Problem "Euclidean Steiner Tree Problem"
Remark "Generated with STPGenerator. 2 dimensions."
END

SECTION Graph
Nodes 10
END

SECTION Coordinates
DD 0 -0.8342015685 0.5514596478
DD 1 0.8766185515 -0.4811859466
DD 2 0.3134699106 -0.9495981335
DD 3 0.9995315465 0.0306053513
DD 4 -0.6386895629 0.7694645165
DD 5 -0.8806670684 0.4737357013
DD 6 -0.9999946772 -0.0032627464
DD 7 0.8560367383 -0.5169149859
DD 8 -0.9307039960 -0.3657732518
DD 9 -0.7670403534 0.6415988593
END
